
Gurobi 9.0.2 (win64) logging started Sat Oct 10 14:16:01 2020

Changed value of parameter logfile to result\v6.2-20201010T1221\scenario_2030_eff065_cab1000.log
   Prev:   Default: 
Gurobi Optimizer version 9.0.2 build v9.0.2rc0 (win64)
Optimize a model with 1384150 rows, 884815 columns and 3912197 nonzeros
Model fingerprint: 0x3e98f16a
Coefficient statistics:
  Matrix range     [1e-07, 3e+05]
  Objective range  [1e+00, 1e+00]
  Bounds range     [0e+00, 0e+00]
  RHS range        [2e-05, 3e+08]
Warning: Model contains large matrix coefficient range
         Consider reformulating model or setting NumericFocus parameter
         to avoid numerical issues.

Concurrent LP optimizer: primal simplex, dual simplex, and barrier
Showing barrier log only...

Presolve removed 1129315 rows and 656241 columns
Presolve time: 3.50s
Presolved: 254835 rows, 342440 columns, 891938 nonzeros

Ordering time: 0.13s

Barrier statistics:
 Dense cols : 9
 AA' NZ     : 8.194e+05
 Factor NZ  : 4.461e+06 (roughly 300 MBytes of memory)
 Factor Ops : 1.125e+08 (less than 1 second per iteration)
 Threads    : 30

                  Objective                Residual
Iter       Primal          Dual         Primal    Dual     Compl     Time
   0  -1.88121771e+16 -1.58515900e+15  5.64e+06 1.56e+04  2.26e+12     4s
   1  -2.86983586e+15 -1.58807237e+15  8.53e+05 4.69e+06  7.41e+11     5s
   2  -1.21911042e+15 -1.28703739e+15  3.60e+05 9.66e+05  2.23e+11     5s
   3  -4.90350222e+14 -1.06232043e+15  1.42e+05 2.72e+05  7.90e+10     5s
   4  -1.12846706e+14 -6.69901741e+14  3.01e+04 6.72e+04  1.83e+10     5s
   5  -3.54487521e+13 -4.52559013e+14  9.40e+03 3.39e+04  7.60e+09     6s
   6  -1.71756036e+13 -2.53569298e+14  4.77e+03 1.04e+04  2.95e+09     6s
   7  -6.90471500e+12 -1.44639879e+14  2.04e+03 1.98e+03  9.27e+08     6s
   8  -1.37625421e+12 -7.41621473e+13  5.23e+02 2.98e+02  2.30e+08     6s
   9   4.82398978e+11 -1.02275108e+13  2.98e+00 3.94e+00  1.61e+07     7s
  10   1.81725372e+11 -1.56885994e+12  2.65e-01 4.56e-01  2.57e+06     7s
  11   8.46769759e+10 -5.12290073e+11  9.77e-02 5.25e-02  8.69e+05     7s
  12   6.64867356e+10 -3.75564190e+11  7.45e-02 4.81e-04  6.43e+05     8s
  13   3.20619959e+10 -2.21079437e+11  3.00e-02 7.45e-09  3.67e+05     8s
  14   1.65864625e+10 -8.60490769e+10  1.15e-02 1.12e-08  1.49e+05     8s
  15   1.46791122e+10 -3.94026386e+10  9.43e-03 1.12e-08  7.85e+04     8s
  16   1.47657029e+10 -3.03478563e+10  9.15e-03 7.45e-09  6.55e+04     9s
  17   9.14809025e+09 -8.32468926e+09  3.18e-03 1.12e-08  2.53e+04     9s
  18   7.08549311e+09  4.37782327e+05  1.04e-03 9.31e-09  1.03e+04     9s
  19   6.53049817e+09  3.65680114e+09  5.83e-04 5.59e-09  4.16e+03    10s
  20   6.36393478e+09  3.89348374e+09  4.60e-04 5.59e-09  3.57e+03    10s
  21   6.24305085e+09  4.27933370e+09  3.72e-04 5.59e-09  2.84e+03    10s
  22   6.14888668e+09  4.55682575e+09  3.03e-04 4.66e-09  2.30e+03    10s
  23   6.05713297e+09  4.79102203e+09  2.37e-04 3.73e-09  1.83e+03    11s
  24   5.95986001e+09  5.12262502e+09  1.68e-04 2.79e-09  1.21e+03    11s
  25   5.87000013e+09  5.29805000e+09  1.00e-04 2.79e-09  8.27e+02    11s
  26   5.81187000e+09  5.43000612e+09  6.20e-05 1.86e-09  5.52e+02    12s
  27   5.78794974e+09  5.53135254e+09  4.59e-05 1.86e-09  3.71e+02    12s
  28   5.77196198e+09  5.58262135e+09  3.57e-05 1.86e-09  2.74e+02    12s
  29   5.75952031e+09  5.59696348e+09  2.78e-05 1.86e-09  2.35e+02    13s
  30   5.75246893e+09  5.63318754e+09  2.34e-05 1.86e-09  1.72e+02    13s
  31   5.74235022e+09  5.64847994e+09  1.73e-05 1.86e-09  1.36e+02    13s
  32   5.73581003e+09  5.66330617e+09  1.34e-05 1.86e-09  1.05e+02    14s
  33   5.72969576e+09  5.67011748e+09  9.78e-06 1.86e-09  8.61e+01    14s
  34   5.72723305e+09  5.68407558e+09  8.28e-06 1.86e-09  6.24e+01    14s
  35   5.72603646e+09  5.68532872e+09  7.54e-06 1.86e-09  5.88e+01    15s
  36   5.72404972e+09  5.69005441e+09  6.38e-06 1.86e-09  4.91e+01    15s
  37   5.72228520e+09  5.69536039e+09  5.39e-06 1.86e-09  3.89e+01    16s
  38   5.72051214e+09  5.69952600e+09  4.36e-06 1.86e-09  3.03e+01    16s
  39   5.71979740e+09  5.70098689e+09  3.96e-06 1.86e-09  2.72e+01    16s
  40   5.71823036e+09  5.70234867e+09  3.04e-06 1.86e-09  2.30e+01    17s
  41   5.71798919e+09  5.70350133e+09  2.90e-06 1.86e-09  2.09e+01    17s
  42   5.71737300e+09  5.70471077e+09  2.55e-06 2.79e-09  1.83e+01    17s
  43   5.71724652e+09  5.70508065e+09  2.48e-06 1.86e-09  1.76e+01    18s
  44   5.71688784e+09  5.70620081e+09  2.28e-06 1.86e-09  1.54e+01    18s
  45   5.71628896e+09  5.70693807e+09  1.93e-06 1.86e-09  1.35e+01    19s
  46   5.71570462e+09  5.70775091e+09  1.59e-06 1.86e-09  1.15e+01    19s
  47   5.71552806e+09  5.70845413e+09  1.49e-06 1.86e-09  1.02e+01    19s
  48   5.71494795e+09  5.70917554e+09  1.17e-06 1.86e-09  8.34e+00    20s
  49   5.71466312e+09  5.70946117e+09  1.01e-06 2.79e-09  7.52e+00    20s
  50   5.71443755e+09  5.71025995e+09  8.80e-07 1.86e-09  6.04e+00    20s
  51   5.71419263e+09  5.71132923e+09  7.37e-07 1.86e-09  4.14e+00    21s
  52   5.71409142e+09  5.71140139e+09  6.80e-07 1.86e-09  3.89e+00    21s
  53   5.71393721e+09  5.71171792e+09  5.93e-07 1.86e-09  3.21e+00    22s
  54   5.71385416e+09  5.71191067e+09  5.46e-07 1.86e-09  2.81e+00    22s
  55   5.71379098e+09  5.71196609e+09  5.13e-07 1.86e-09  2.64e+00    22s
  56   5.71371606e+09  5.71202528e+09  4.71e-07 2.79e-09  2.44e+00    23s
  57   5.71362926e+09  5.71212728e+09  4.22e-07 1.86e-09  2.17e+00    23s
  58   5.71352769e+09  5.71224211e+09  3.73e-07 1.86e-09  1.86e+00    24s
  59   5.71348739e+09  5.71227676e+09  3.48e-07 2.79e-09  1.75e+00    24s
  60   5.71342360e+09  5.71233717e+09  3.14e-07 2.79e-09  1.57e+00    25s
  61   5.71339353e+09  5.71237502e+09  2.94e-07 2.79e-09  1.47e+00    25s
  62   5.71333856e+09  5.71249266e+09  2.61e-07 1.86e-09  1.22e+00    26s
  63   5.71327132e+09  5.71255019e+09  2.29e-07 1.86e-09  1.04e+00    26s
  64   5.71324329e+09  5.71260314e+09  2.41e-07 2.79e-09  9.26e-01    26s
  65   5.71317070e+09  5.71265964e+09  3.71e-07 1.86e-09  7.39e-01    27s
  66   5.71314777e+09  5.71274185e+09  3.42e-07 1.86e-09  5.87e-01    27s
  67   5.71310854e+09  5.71277129e+09  2.89e-07 1.86e-09  4.88e-01    28s
  68   5.71306761e+09  5.71278352e+09  2.35e-07 1.86e-09  4.11e-01    28s
  69   5.71304573e+09  5.71281119e+09  2.04e-07 1.86e-09  3.39e-01    29s
  70   5.71302319e+09  5.71281854e+09  1.74e-07 1.86e-09  2.96e-01    30s
  71   5.71301153e+09  5.71282347e+09  1.56e-07 1.86e-09  2.72e-01    30s
  72   5.71299627e+09  5.71284438e+09  1.34e-07 1.86e-09  2.20e-01    30s
  73   5.71298845e+09  5.71285256e+09  1.22e-07 1.86e-09  1.97e-01    31s
  74   5.71296301e+09  5.71286311e+09  8.30e-08 1.86e-09  1.45e-01    32s
  75   5.71295704e+09  5.71286811e+09  7.43e-08 1.86e-09  1.29e-01    32s
  76   5.71294889e+09  5.71287550e+09  6.23e-08 1.86e-09  1.06e-01    33s
  77   5.71293907e+09  5.71289167e+09  4.74e-08 1.86e-09  6.86e-02    33s
  78   5.71292901e+09  5.71290614e+09  3.20e-08 2.79e-09  3.31e-02    34s
  79   5.71291029e+09  5.71290711e+09  1.66e-08 2.79e-09  4.60e-03    34s
  80   5.71290814e+09  5.71290794e+09  9.19e-09 2.79e-09  2.96e-04    35s
  81   5.71290814e+09  5.71290794e+09  1.07e-03 2.79e-09  2.96e-04    35s

Barrier solved model in 81 iterations and 35.26 seconds
Optimal objective 5.71290814e+09

Crossover log...

   73890 DPushes remaining with DInf 0.0000000e+00                36s
       0 DPushes remaining with DInf 0.0000000e+00                40s
Warning: Markowitz tolerance tightened to 0.5

  165345 PPushes remaining with PInf 1.9905626e-03                40s
   60682 PPushes remaining with PInf 3.2260296e-03                76s
   45351 PPushes remaining with PInf 2.5953688e-02                81s
   26852 PPushes remaining with PInf 2.5029206e-02                85s
   10374 PPushes remaining with PInf 2.9049519e-02               169s
    9529 PPushes remaining with PInf 1.8486212e-02               170s
     465 PPushes remaining with PInf 1.0687899e-02               212s
       1 PPushes remaining with PInf 0.0000000e+00               215s
       0 PPushes remaining with PInf 0.0000000e+00               215s

  Push phase complete: Pinf 0.0000000e+00, Dinf 1.4612275e+06    216s

Iteration    Objective       Primal Inf.    Dual Inf.      Time
  190998    5.7129080e+09   0.000000e+00   1.461227e+06    216s
  193183    5.7129080e+09   0.000000e+00   0.000000e+00    220s

Solved with barrier
Solved in 193183 iterations and 220.08 seconds
Optimal objective  5.712908027e+09
Warning: unscaled primal violation = 0.000854224 and residual = 0.000854224
